
Gurobi 9.0.2 (win64) logging started Sat Oct 10 14:54:08 2020

Changed value of parameter logfile to result\v6.2-20201010T1221\scenario_2030_eff085_cab1000.log
   Prev:   Default: 
Gurobi Optimizer version 9.0.2 build v9.0.2rc0 (win64)
Optimize a model with 1384150 rows, 884815 columns and 3912197 nonzeros
Model fingerprint: 0x10c11392
Coefficient statistics:
  Matrix range     [1e-07, 3e+05]
  Objective range  [1e+00, 1e+00]
  Bounds range     [0e+00, 0e+00]
  RHS range        [2e-05, 3e+08]
Warning: Model contains large matrix coefficient range
         Consider reformulating model or setting NumericFocus parameter
         to avoid numerical issues.

Concurrent LP optimizer: primal simplex, dual simplex, and barrier
Showing barrier log only...

Presolve removed 1129315 rows and 656241 columns
Presolve time: 3.61s
Presolved: 254835 rows, 342440 columns, 891938 nonzeros

Ordering time: 0.13s

Barrier statistics:
 Dense cols : 9
 AA' NZ     : 8.194e+05
 Factor NZ  : 4.461e+06 (roughly 300 MBytes of memory)
 Factor Ops : 1.125e+08 (less than 1 second per iteration)
 Threads    : 30

                  Objective                Residual
Iter       Primal          Dual         Primal    Dual     Compl     Time
   0  -1.88122907e+16 -1.58516162e+15  5.64e+06 1.56e+04  2.26e+12     4s
   1  -2.86986056e+15 -1.58807498e+15  8.53e+05 4.69e+06  7.41e+11     5s
   2  -1.21912798e+15 -1.28704003e+15  3.60e+05 9.66e+05  2.23e+11     5s
   3  -4.90366912e+14 -1.06232324e+15  1.42e+05 2.72e+05  7.90e+10     5s
   4  -1.12869528e+14 -6.69908691e+14  3.01e+04 6.72e+04  1.83e+10     6s
   5  -3.54719443e+13 -4.52566024e+14  9.40e+03 3.39e+04  7.60e+09     6s
   6  -1.71995057e+13 -2.53580668e+14  4.77e+03 1.04e+04  2.95e+09     6s
   7  -6.92943432e+12 -1.44657454e+14  2.04e+03 1.98e+03  9.27e+08     6s
   8  -1.40270216e+12 -7.41835868e+13  5.24e+02 2.98e+02  2.31e+08     7s
   9   4.60032906e+11 -1.02044501e+13  2.98e+00 3.72e+00  1.61e+07     7s
  10   1.75095443e+11 -1.51928073e+12  3.13e-01 4.15e-01  2.48e+06     7s
  11   8.25124553e+10 -5.02979071e+11  1.17e-01 4.54e-02  8.53e+05     8s
  12   5.04723169e+10 -3.91172135e+11  6.65e-02 5.89e-03  6.41e+05     8s
  13   3.94011143e+10 -2.98293596e+11  4.98e-02 5.59e-09  4.90e+05     8s
  14   2.05159225e+10 -2.05532079e+11  2.02e-02 7.45e-09  3.27e+05     8s
  15   1.40056559e+10 -8.72737537e+10  1.07e-02 1.12e-08  1.47e+05     8s
  16   1.28283326e+10 -1.78474174e+10  8.99e-03 1.49e-08  4.47e+04     9s
  17   8.52571662e+09 -7.05178230e+09  3.53e-03 1.12e-08  2.26e+04     9s
  18   6.46507859e+09  2.36618508e+08  9.37e-04 1.12e-08  9.02e+03     9s
  19   6.13317451e+09  4.28465962e+09  5.86e-04 7.45e-09  2.68e+03    10s
  20   5.98398365e+09  4.68546302e+09  4.60e-04 5.59e-09  1.88e+03    10s
  21   5.89694592e+09  4.77224760e+09  3.84e-04 4.66e-09  1.63e+03    10s
  22   5.81344767e+09  4.91551182e+09  3.11e-04 4.66e-09  1.30e+03    10s
  23   5.75326667e+09  4.99810355e+09  2.58e-04 3.73e-09  1.09e+03    11s
  24   5.66705003e+09  5.15641978e+09  1.79e-04 2.79e-09  7.39e+02    11s
  25   5.58720105e+09  5.24030742e+09  1.11e-04 2.79e-09  5.02e+02    11s
  26   5.55685672e+09  5.28951440e+09  8.52e-05 1.86e-09  3.87e+02    12s
  27   5.53308283e+09  5.30947609e+09  6.61e-05 2.79e-09  3.23e+02    12s
  28   5.51593704e+09  5.34137515e+09  5.10e-05 1.86e-09  2.52e+02    12s
  29   5.50568897e+09  5.36278205e+09  4.24e-05 1.86e-09  2.07e+02    13s
  30   5.49685098e+09  5.38279632e+09  3.51e-05 1.86e-09  1.65e+02    13s
  31   5.48710687e+09  5.39232139e+09  2.67e-05 1.86e-09  1.37e+02    14s
  32   5.48291050e+09  5.41305318e+09  2.30e-05 1.86e-09  1.01e+02    14s
  33   5.47542001e+09  5.41938292e+09  1.64e-05 1.86e-09  8.10e+01    14s
  34   5.47210626e+09  5.42874567e+09  1.35e-05 1.86e-09  6.27e+01    15s
  35   5.47068805e+09  5.43113962e+09  1.23e-05 1.86e-09  5.72e+01    15s
  36   5.46951254e+09  5.43501869e+09  1.14e-05 1.86e-09  4.99e+01    16s
  37   5.46738252e+09  5.43740599e+09  9.57e-06 1.86e-09  4.34e+01    16s
  38   5.46647905e+09  5.44078496e+09  8.84e-06 1.86e-09  3.72e+01    16s
  39   5.46433609e+09  5.44236681e+09  6.99e-06 1.86e-09  3.18e+01    17s
  40   5.46371572e+09  5.44508200e+09  6.50e-06 1.86e-09  2.70e+01    17s
  41   5.46271261e+09  5.44691043e+09  5.64e-06 1.86e-09  2.29e+01    18s
  42   5.46227498e+09  5.44903304e+09  5.26e-06 1.86e-09  1.92e+01    18s
  43   5.46123182e+09  5.45008572e+09  4.44e-06 1.86e-09  1.61e+01    19s
  44   5.46081078e+09  5.45044841e+09  4.07e-06 1.86e-09  1.50e+01    19s
  45   5.46030178e+09  5.45116567e+09  3.67e-06 1.86e-09  1.32e+01    20s
  46   5.45990265e+09  5.45176758e+09  3.32e-06 2.79e-09  1.18e+01    20s
  47   5.45974824e+09  5.45201521e+09  3.19e-06 1.86e-09  1.12e+01    21s
  48   5.45956280e+09  5.45266668e+09  3.04e-06 1.86e-09  9.98e+00    21s
  49   5.45882400e+09  5.45300336e+09  2.42e-06 1.86e-09  8.42e+00    22s
  50   5.45863704e+09  5.45353531e+09  2.26e-06 1.86e-09  7.39e+00    22s
  51   5.45844961e+09  5.45379214e+09  2.09e-06 1.86e-09  6.74e+00    23s
  52   5.45808958e+09  5.45410084e+09  1.81e-06 1.86e-09  5.77e+00    24s
  53   5.45778287e+09  5.45433390e+09  1.53e-06 1.86e-09  4.99e+00    24s
  54   5.45771774e+09  5.45446061e+09  1.47e-06 2.79e-09  4.72e+00    25s
  55   5.45754125e+09  5.45460437e+09  1.30e-06 2.79e-09  4.25e+00    25s
  56   5.45740113e+09  5.45471601e+09  1.18e-06 1.86e-09  3.89e+00    26s
  57   5.45728946e+09  5.45512818e+09  1.08e-06 1.86e-09  3.13e+00    26s
  58   5.45710097e+09  5.45519151e+09  9.18e-07 2.79e-09  2.76e+00    27s
  59   5.45704079e+09  5.45527033e+09  8.72e-07 2.79e-09  2.56e+00    27s
  60   5.45697809e+09  5.45540629e+09  8.10e-07 2.79e-09  2.28e+00    28s
  61   5.45685394e+09  5.45543820e+09  7.00e-07 2.79e-09  2.05e+00    29s
  62   5.45678411e+09  5.45551107e+09  6.37e-07 2.79e-09  1.84e+00    29s
  63   5.45677073e+09  5.45553437e+09  6.24e-07 2.79e-09  1.79e+00    30s
  64   5.45670822e+09  5.45558866e+09  5.69e-07 2.79e-09  1.62e+00    31s
  65   5.45667594e+09  5.45565598e+09  5.38e-07 2.79e-09  1.48e+00    31s
  66   5.45660121e+09  5.45569231e+09  4.69e-07 2.79e-09  1.32e+00    32s
  67   5.45656529e+09  5.45575588e+09  4.35e-07 2.79e-09  1.17e+00    33s
  68   5.45655757e+09  5.45576519e+09  4.27e-07 2.79e-09  1.15e+00    33s
  69   5.45652969e+09  5.45580922e+09  4.00e-07 2.79e-09  1.04e+00    34s
  70   5.45645509e+09  5.45589625e+09  3.44e-07 2.79e-09  8.10e-01    34s
  71   5.45640849e+09  5.45594099e+09  3.04e-07 1.86e-09  6.78e-01    35s
  72   5.45637330e+09  5.45596515e+09  2.71e-07 1.86e-09  5.92e-01    36s
  73   5.45635151e+09  5.45597889e+09  2.51e-07 1.86e-09  5.40e-01    36s
  74   5.45630333e+09  5.45599499e+09  2.01e-07 2.79e-09  4.47e-01    37s
  75   5.45625522e+09  5.45601447e+09  1.52e-07 1.86e-09  3.49e-01    38s
  76   5.45624418e+09  5.45603045e+09  1.41e-07 1.86e-09  3.10e-01    39s
  77   5.45622796e+09  5.45603491e+09  1.26e-07 1.86e-09  2.80e-01    39s
  78   5.45621761e+09  5.45604036e+09  1.16e-07 2.79e-09  2.57e-01    40s
  79   5.45621102e+09  5.45604766e+09  1.09e-07 2.79e-09  2.37e-01    40s
  80   5.45620448e+09  5.45605424e+09  1.02e-07 1.86e-09  2.18e-01    41s
  81   5.45619642e+09  5.45605676e+09  9.38e-08 2.79e-09  2.02e-01    42s
  82   5.45619188e+09  5.45605882e+09  8.86e-08 2.79e-09  1.93e-01    42s
  83   5.45618768e+09  5.45606356e+09  8.44e-08 2.79e-09  1.80e-01    43s

Barrier solved model in 83 iterations and 42.72 seconds
Optimal objective 5.45618768e+09

Crossover log...

  102610 DPushes remaining with DInf 0.0000000e+00                43s
   14695 DPushes remaining with DInf 0.0000000e+00                45s
    4769 DPushes remaining with DInf 0.0000000e+00                50s
    1490 DPushes remaining with DInf 0.0000000e+00                55s
       0 DPushes remaining with DInf 0.0000000e+00                58s
Warning: Markowitz tolerance tightened to 0.5

  175209 PPushes remaining with PInf 0.0000000e+00                58s
  110718 PPushes remaining with PInf 0.0000000e+00                64s
   95696 PPushes remaining with PInf 0.0000000e+00                68s
   85321 PPushes remaining with PInf 0.0000000e+00                70s
   64033 PPushes remaining with PInf 0.0000000e+00                76s
   47180 PPushes remaining with PInf 0.0000000e+00                80s
   29253 PPushes remaining with PInf 0.0000000e+00                86s
   27208 PPushes remaining with PInf 0.0000000e+00                90s
   23489 PPushes remaining with PInf 0.0000000e+00                98s
   19174 PPushes remaining with PInf 0.0000000e+00               105s
   17472 PPushes remaining with PInf 0.0000000e+00               111s
   12914 PPushes remaining with PInf 0.0000000e+00               116s
    4746 PPushes remaining with PInf 0.0000000e+00               156s
    3471 PPushes remaining with PInf 0.0000000e+00               163s
    1666 PPushes remaining with PInf 0.0000000e+00               174s
     792 PPushes remaining with PInf 0.0000000e+00               179s
     365 PPushes remaining with PInf 0.0000000e+00               181s
       0 PPushes remaining with PInf 0.0000000e+00               184s

  Push phase complete: Pinf 0.0000000e+00, Dinf 4.6213820e+05    184s

Iteration    Objective       Primal Inf.    Dual Inf.      Time
  228541    5.4561241e+09   0.000000e+00   4.621382e+05    184s
  228812    5.4561114e+09   0.000000e+00   9.664604e+04    185s
  230438    5.4561099e+09   0.000000e+00   2.284982e+04    190s
  234787    5.4561098e+09   0.000000e+00   0.000000e+00    196s

Solved with barrier
Solved in 234787 iterations and 195.82 seconds
Optimal objective  5.456109824e+09
Warning: unscaled primal violation = 0.000852496 and residual = 0.000852496
